(set-info :smt-lib-version 2.6)
(set-logic UF)
(set-info :source |
Generated by: David Deharbe, CLEARSY
Generated on: 2019-09-09
Generator: bxml;pog;pog2smt (Atelier B)
Application: Event-B
Target solver: CVC4, Z3
|)
(set-info :license "https://creativecommons.org/licenses/by-nc/4.0/")
(set-info :category "industrial")
(set-info :status sat)
; Prelude
(declare-sort U 0)
(declare-fun |*i| (U U) U)
(declare-fun |+i| (U U) U)
(declare-fun |-i| (U U) U)
(declare-fun idiv (U U) U)
(declare-fun |*r| (U U) U)
(declare-fun |+r| (U U) U)
(declare-fun |-r| (U U) U)
(declare-fun rdiv (U U) U)
(declare-fun modulo (U U) U)
(declare-fun |<i| (U U) Bool)
(declare-fun |<=i| (U U) Bool)
(declare-fun |>i| (U U) Bool)
(declare-fun |>=i| (U U) Bool)
(declare-fun |<r| (U U) Bool)
(declare-fun |<=r| (U U) Bool)
(declare-fun |>r| (U U) Bool)
(declare-fun |>=r| (U U) Bool)
(declare-fun iuminus (U) U)
(declare-fun ruminus (U) U)
(declare-fun TRUE () U)
(declare-fun FALSE () U)
(assert (not (= TRUE FALSE)))
(declare-fun empty () U)
(declare-fun bool (Bool) U)
(declare-fun BOOL () U)
(declare-fun INT () U)
(declare-fun INTEGER () U)
(declare-fun NAT () U)
(declare-fun NAT1 () U)
(declare-fun NATURAL () U)
(declare-fun NATURAL1 () U)
(declare-fun FLOAT () U)
(declare-fun MaxInt () U)
(declare-fun MinInt () U)
(declare-fun |STRING| () U)
(declare-fun REAL () U)
(declare-fun set_prod (U U) U)
(declare-fun set_diff (U U) U)
(declare-fun mapplet (U U) U)
(declare-fun |**i| (U U) U)
(declare-fun |**r| (U U) U)
(declare-fun |+->| (U U) U)
(declare-fun |+->>| (U U) U)
(declare-fun |-->| (U U) U)
(declare-fun |-->>| (U U) U)
(declare-fun |<->| (U U) U)
(declare-fun |>+>| (U U) U)
(declare-fun |>->| (U U) U)
(declare-fun |>+>>| (U U) U)
(declare-fun |>->>| (U U) U)
(declare-fun |->| (U U) U)
(declare-fun interval (U U) U)
(declare-fun composition (U U) U)
(declare-fun binary_inter (U U) U)
(declare-fun restriction_head (U U) U)
(declare-fun semicolon (U U) U)
(declare-fun |<+| (U U) U)
(declare-fun |<-| (U U) U)
(declare-fun domain_subtraction (U U) U)
(declare-fun domain_restriction (U U) U)
(declare-fun |><| (U U) U)
(declare-fun parallel_product (U U) U)
(declare-fun binary_union (U U) U)
(declare-fun restriction_tail (U U) U)
(declare-fun concatenate (U U) U)
(declare-fun range_restriction (U U) U)
(declare-fun range_subtraction (U U) U)
(declare-fun image (U U) U)
(declare-fun apply (U U) U)
(declare-fun prj1 (U U) U)
(declare-fun prj2 (U U) U)
(declare-fun iterate (U U) U)
(declare-fun |const| (U U) U)
(declare-fun rank (U U) U)
(declare-fun father (U U) U)
(declare-fun subtree (U U) U)
(declare-fun arity (U U) U)
(declare-fun |+f| (U U) U)
(declare-fun |-f| (U U) U)
(declare-fun |*f| (U U) U)
(declare-fun |fdiv| (U U) U)
(declare-fun tbin (U U U) U)
(declare-fun son (U U U) U)
(declare-fun mem (U U) Bool)
(declare-fun subset (U U) Bool)
(declare-fun strict_subset (U U) Bool)
(declare-fun |<=f| (U U) Bool)
(declare-fun |<f| (U U) Bool)
(declare-fun |>=f| (U U) Bool)
(declare-fun |>f| (U U) Bool)
(declare-fun imax (U) U)
(declare-fun imin (U) U)
(declare-fun rmax (U) U)
(declare-fun rmin (U) U)
(declare-fun card (U) U)
(declare-fun dom (U) U)
(declare-fun ran (U) U)
(declare-fun POW (U) U)
(declare-fun POW1 (U) U)
(declare-fun FIN (U) U)
(declare-fun FIN1 (U) U)
(declare-fun union (U) U)
(declare-fun inter (U) U)
(declare-fun seq (U) U)
(declare-fun seq1 (U) U)
(declare-fun iseq (U) U)
(declare-fun iseq1 (U) U)
(declare-fun inverse (U) U)
(declare-fun size (U) U)
(declare-fun perm (U) U)
(declare-fun first (U) U)
(declare-fun last (U) U)
(declare-fun id (U) U)
(declare-fun closure (U) U)
(declare-fun closure1 (U) U)
(declare-fun tail (U) U)
(declare-fun front (U) U)
(declare-fun reverse (U) U)
(declare-fun rev (U) U)
(declare-fun conc (U) U)
(declare-fun succ (U) U)
(declare-fun pred (U) U)
(declare-fun rel (U) U)
(declare-fun fnc (U) U)
(declare-fun real (U) U)
(declare-fun floor (U) U)
(declare-fun ceiling (U) U)
(declare-fun tree (U) U)
(declare-fun btree (U) U)
(declare-fun top (U) U)
(declare-fun sons (U) U)
(declare-fun prefix (U) U)
(declare-fun postfix (U) U)
(declare-fun sizet (U) U)
(declare-fun mirror (U) U)
(declare-fun left (U) U)
(declare-fun right (U) U)
(declare-fun infix (U) U)
(declare-fun ubin (U) U)
(declare-fun SEQ (U) U)
(declare-fun SET (U) U)
; Opaque formulas
(declare-fun e0 () U)
(declare-fun e66 () U)
(declare-fun e138 () U)
(declare-fun e140 () U)
(declare-fun e143 () U)
(declare-fun e136 () U)
(declare-fun e32 () U)
(declare-fun g_s0_1 () U)
(declare-fun g_s1_2 () U)
(declare-fun g_s10_11 () U)
(declare-fun g_s100_101 () U)
(declare-fun g_s101_102 () U)
(declare-fun g_s102_104 () U)
(declare-fun g_s103_103 () U)
(declare-fun g_s104_105 () U)
(declare-fun g_s105_106 () U)
(declare-fun g_s106_107 () U)
(declare-fun g_s107_108 () U)
(declare-fun g_s108_110 () U)
(declare-fun g_s109_109 () U)
(declare-fun g_s11_12 () U)
(declare-fun g_s110_111 () U)
(declare-fun g_s111_112 () U)
(declare-fun g_s112_113 () U)
(declare-fun g_s113_115 () U)
(declare-fun g_s114_114 () U)
(declare-fun g_s115_116 () U)
(declare-fun g_s116_117 () U)
(declare-fun g_s117_118 () U)
(declare-fun g_s118_119 () U)
(declare-fun g_s119_120 () U)
(declare-fun g_s12_13 () U)
(declare-fun g_s120_121 () U)
(declare-fun g_s121_122 () U)
(declare-fun g_s122_124 () U)
(declare-fun g_s123_123 () U)
(declare-fun g_s124_126 () U)
(declare-fun g_s125_125 () U)
(declare-fun g_s126_128 () U)
(declare-fun g_s127_127 () U)
(declare-fun g_s128_129 () U)
(declare-fun g_s129_130 () U)
(declare-fun g_s13_14 () U)
(declare-fun g_s130_131 () U)
(declare-fun g_s131_132 () U)
(declare-fun g_s132_133 () U)
(declare-fun g_s133_134 () U)
(declare-fun g_s134_135 () U)
(declare-fun g_s135_137 () U)
(declare-fun g_s136_139 () U)
(declare-fun g_s137_141 () U)
(declare-fun g_s138_142 () U)
(declare-fun g_s139_144 () U)
(declare-fun g_s14_15 () U)
(declare-fun g_s140_145 () U)
(declare-fun g_s141_146 () U)
(declare-fun g_s142_147 () U)
(declare-fun g_s143_148 () U)
(declare-fun g_s144_149 () U)
(declare-fun g_s145_150 () U)
(declare-fun g_s146_151 () U)
(declare-fun g_s147_152 () U)
(declare-fun g_s148_153 () U)
(declare-fun g_s149_155 () U)
(declare-fun g_s15_16 () U)
(declare-fun g_s150_154 () U)
(declare-fun g_s151_156 () U)
(declare-fun g_s152_157 () U)
(declare-fun g_s153_158 () U)
(declare-fun g_s154_159 () U)
(declare-fun g_s155_160 () U)
(declare-fun g_s156_161 () U)
(declare-fun g_s157_162 () U)
(declare-fun g_s158_163 () U)
(declare-fun g_s159_164 () U)
(declare-fun g_s16_17 () U)
(declare-fun g_s160_165 () U)
(declare-fun g_s161_166 () U)
(declare-fun g_s162_167 () U)
(declare-fun g_s163_168 () U)
(declare-fun g_s164_169 () U)
(declare-fun g_s165_170 () U)
(declare-fun g_s166_171 () U)
(declare-fun g_s167_172 () U)
(declare-fun g_s168_173 () U)
(declare-fun g_s169_174 () U)
(declare-fun g_s17_18 () U)
(declare-fun g_s170_175 () U)
(declare-fun g_s171_176 () U)
(declare-fun g_s172_177 () U)
(declare-fun g_s173_178 () U)
(declare-fun g_s174_179 () U)
(declare-fun g_s175_180 () U)
(declare-fun g_s176_181 () U)
(declare-fun g_s177_182 () U)
(declare-fun g_s178_183 () U)
(declare-fun g_s18_19 () U)
(declare-fun g_s180_184 () U)
(declare-fun g_s181$1_185 () U)
(declare-fun g_s19_20 () U)
(declare-fun g_s2_3 () U)
(declare-fun g_s20_21 () U)
(declare-fun g_s21_22 () U)
(declare-fun g_s22_23 () U)
(declare-fun g_s23_24 () U)
(declare-fun g_s24_25 () U)
(declare-fun g_s25_26 () U)
(declare-fun g_s26_27 () U)
(declare-fun g_s27_28 () U)
(declare-fun g_s28_29 () U)
(declare-fun g_s29_30 () U)
(declare-fun g_s3_4 () U)
(declare-fun g_s30_31 () U)
(declare-fun g_s31_33 () U)
(declare-fun g_s32_34 () U)
(declare-fun g_s33_35 () U)
(declare-fun g_s34_36 () U)
(declare-fun g_s37_39 () U)
(declare-fun g_s38_38 () U)
(declare-fun g_s39_40 () U)
(declare-fun g_s4_5 () U)
(declare-fun g_s40_41 () U)
(declare-fun g_s41_42 () U)
(declare-fun g_s42_43 () U)
(declare-fun g_s43_44 () U)
(declare-fun g_s44_45 () U)
(declare-fun g_s45_46 () U)
(declare-fun g_s46_47 () U)
(declare-fun g_s47_48 () U)
(declare-fun g_s48_49 () U)
(declare-fun g_s49_50 () U)
(declare-fun g_s5_6 () U)
(declare-fun g_s50_51 () U)
(declare-fun g_s51_53 () U)
(declare-fun g_s52_52 () U)
(declare-fun g_s53_54 () U)
(declare-fun g_s54_55 () U)
(declare-fun g_s55_56 () U)
(declare-fun g_s56_57 () U)
(declare-fun g_s57_58 () U)
(declare-fun g_s58_59 () U)
(declare-fun g_s59_60 () U)
(declare-fun g_s6_7 () U)
(declare-fun g_s60_61 () U)
(declare-fun g_s61_62 () U)
(declare-fun g_s62_63 () U)
(declare-fun g_s63_64 () U)
(declare-fun g_s64_67 () U)
(declare-fun g_s65_65 () U)
(declare-fun g_s66_68 () U)
(declare-fun g_s67_69 () U)
(declare-fun g_s68_70 () U)
(declare-fun g_s69_71 () U)
(declare-fun g_s7_8 () U)
(declare-fun g_s70_73 () U)
(declare-fun g_s71_72 () U)
(declare-fun g_s72_74 () U)
(declare-fun g_s73_75 () U)
(declare-fun g_s74_76 () U)
(declare-fun g_s75_77 () U)
(declare-fun g_s76_78 () U)
(declare-fun g_s77_79 () U)
(declare-fun g_s78_80 () U)
(declare-fun g_s79_81 () U)
(declare-fun g_s8_9 () U)
(declare-fun g_s80_82 () U)
(declare-fun g_s81_83 () U)
(declare-fun g_s82_84 () U)
(declare-fun g_s83_85 () U)
(declare-fun g_s84_86 () U)
(declare-fun g_s85_87 () U)
(declare-fun g_s86_88 () U)
(declare-fun g_s87_89 () U)
(declare-fun g_s88_90 () U)
(declare-fun g_s89_91 () U)
(declare-fun g_s9_10 () U)
(declare-fun g_s91_92 () U)
(declare-fun g_s92_93 () U)
(declare-fun g_s93_94 () U)
(declare-fun g_s94_95 () U)
(declare-fun g_s95_96 () U)
(declare-fun g_s96_97 () U)
(declare-fun g_s97_98 () U)
(declare-fun g_s98_99 () U)
(declare-fun g_s99_100 () U)
(declare-fun e37 () U)
; Defines
(define-fun |def_B definitions| () Bool (and (= NAT (interval e0 MaxInt)) (= INT (interval MinInt MaxInt))))
(define-fun |def_ctx| () Bool (and (= g_s0_1 (SET (mapplet g_s3_4 (mapplet g_s2_3 g_s1_2)))) (not (= g_s4_5 empty)) (not (= g_s5_6 empty)) (not (= g_s6_7 empty)) (not (= g_s7_8 empty)) (not (= g_s8_9 empty)) (not (= g_s9_10 empty)) (not (= g_s10_11 empty)) (not (= g_s11_12 empty)) (not (= g_s12_13 empty)) (not (= g_s13_14 empty)) (= g_s14_15 (SET (mapplet g_s19_20 (mapplet g_s18_19 (mapplet g_s17_18 (mapplet g_s16_17 g_s15_16)))))) (= g_s20_21 (SET (mapplet g_s23_24 (mapplet g_s22_23 g_s21_22)))) (not (= g_s24_25 empty)) (not (= g_s25_26 empty)) (= g_s26_27 (SET (mapplet g_s29_30 (mapplet g_s28_29 g_s27_28)))) (mem g_s30_31 NAT) (= g_s30_31 e32) (mem g_s31_33 NAT1) (|<i| g_s31_33 g_s30_31) (mem g_s32_34 NAT) (= g_s32_34 e32) (mem g_s33_35 NAT1) (|<i| g_s33_35 g_s32_34) (subset g_s34_36 (seq INTEGER)) (= g_s34_36 e37) (subset g_s37_39 g_s38_38) (= (SET (mapplet g_s44_45 (mapplet g_s43_44 (mapplet g_s42_43 (mapplet g_s41_42 (mapplet g_s40_41 g_s39_40)))))) g_s37_39) (= g_s45_46 NATURAL) (subset g_s46_47 INTEGER) (subset g_s45_46 g_s46_47) (mem g_s47_48 g_s46_47) (not (mem g_s47_48 g_s45_46)) (subset g_s48_49 g_s6_7) (mem g_s49_50 g_s6_7) (not (mem g_s49_50 g_s48_49)) (mem g_s50_51 g_s48_49) (mem g_s51_53 (|>->>| (interval e0 g_s52_52) g_s6_7)) (= g_s53_54 NATURAL) (= g_s54_55 NATURAL1) (= g_s55_56 e0) (subset g_s56_57 g_s12_13) (mem g_s56_57 (FIN g_s12_13)) (mem g_s57_58 g_s56_57) (mem g_s58_59 g_s12_13) (not (mem g_s58_59 g_s56_57)) (mem g_s59_60 (perm g_s56_57)) (mem g_s60_61 NAT1) (= (card g_s56_57) (|*i| g_s60_61 g_s33_35)) (subset g_s61_62 g_s5_6) (mem g_s62_63 g_s5_6) (not (mem g_s62_63 g_s61_62)) (mem g_s63_64 g_s61_62) (mem g_s64_67 (|>->>| (interval e66 g_s65_65) g_s61_62)) (mem g_s66_68 (|>->>| (interval e0 g_s65_65) g_s5_6)) (subset g_s67_69 g_s4_5) (mem g_s68_70 g_s4_5) (not (mem g_s68_70 g_s67_69)) (mem g_s69_71 g_s67_69) (mem g_s70_73 (|>->>| (interval e0 g_s71_72) g_s4_5)) (= g_s72_74 (interval e0 (|-i| g_s32_34 e66))) (mem g_s73_75 (|-->>| g_s48_49 g_s67_69)) (mem g_s74_76 (|-->| g_s48_49 g_s72_74)) (mem g_s75_77 (|>->>| g_s48_49 (set_prod g_s67_69 g_s72_74))) (= g_s75_77 (|><| g_s73_75 g_s74_76)) (subset g_s76_78 g_s7_8) (mem g_s77_79 g_s76_78) (mem g_s78_80 g_s7_8) (not (mem g_s78_80 g_s76_78)) (subset g_s79_81 g_s13_14) (mem g_s80_82 g_s13_14) (not (mem g_s80_82 g_s79_81)) (mem g_s81_83 g_s79_81) (mem g_s82_84 (perm g_s79_81)) (subset g_s83_85 NAT) (subset g_s84_86 g_s83_85) (mem g_s85_87 g_s83_85) (mem g_s85_87 g_s84_86) (mem g_s86_88 g_s83_85) (not (mem g_s86_88 g_s84_86)) (mem g_s87_89 (|+->| NAT g_s83_85)) (mem g_s87_89 (perm g_s84_86)) (subset g_s88_90 g_s83_85) (subset g_s89_91 g_s84_86) (mem g_s85_87 g_s89_91) (mem g_s85_87 g_s88_90) (forall ((l_s90 U)) (=> (mem l_s90 g_s88_90) (mem (|+i| e66 l_s90) g_s83_85))) (forall ((l_s90 U)) (=> (mem l_s90 g_s89_91) (mem (|+i| e66 l_s90) g_s84_86))) (= g_s89_91 (binary_inter g_s88_90 g_s84_86)) (= g_s91_92 INTEGER) (= g_s92_93 NATURAL) (subset g_s92_93 g_s91_92) (mem g_s93_94 g_s91_92) (not (mem g_s93_94 g_s92_93)) (= g_s94_95 INTEGER) (= g_s95_96 INTEGER) (mem g_s96_97 NAT) (subset g_s97_98 g_s8_9) (mem g_s98_99 g_s8_9) (not (mem g_s98_99 g_s97_98)) (mem g_s99_100 g_s97_98) (mem g_s100_101 (|>->>| (interval e0 g_s96_97) g_s8_9)) (= g_s101_102 e0) (= g_s102_104 (interval e66 g_s103_103)) (= g_s104_105 (interval e0 g_s103_103)) (subset g_s102_104 g_s104_105) (not (= g_s102_104 empty)) (subset g_s105_106 g_s9_10) (mem g_s106_107 g_s9_10) (not (mem g_s106_107 g_s105_106)) (mem g_s107_108 g_s105_106) (mem g_s108_110 (|>->>| (interval e66 g_s109_109) g_s105_106)) (subset g_s110_111 g_s10_11) (mem g_s111_112 g_s10_11) (not (mem g_s111_112 g_s110_111)) (mem g_s112_113 g_s110_111) (mem g_s113_115 (|>->>| (interval e66 g_s114_114) g_s110_111)) (subset g_s115_116 NATURAL) (= g_s115_116 (interval e0 g_s116_117)) (= g_s117_118 (interval e66 g_s116_117)) (subset g_s117_118 g_s115_116) (mem g_s118_119 g_s115_116) (not (mem g_s118_119 g_s117_118)) (mem g_s119_120 g_s117_118) (mem g_s120_121 (|>->>| (interval e66 g_s116_117) g_s117_118)) (mem g_s121_122 g_s11_12) (mem g_s122_124 (|>->>| (interval e66 g_s123_123) g_s11_12)) (= g_s124_126 (interval e0 g_s125_125)) (= g_s126_128 (interval e0 g_s127_127)) (mem g_s128_129 NATURAL1) (= g_s128_129 (|+i| g_s129_130 e66)) (= g_s130_131 (interval e0 g_s128_129)) (mem g_s131_132 NATURAL1) (= g_s131_132 (|+i| g_s132_133 e66)) (= g_s133_134 (interval e0 g_s131_132)) (mem g_s134_135 NATURAL1) (|>=i| g_s134_135 e136) (mem g_s135_137 NATURAL1) (= g_s135_137 e138) (mem g_s136_139 NATURAL1) (= g_s136_139 e140) (|<=i| g_s136_139 g_s137_141) (|<=i| g_s135_137 g_s137_141) (mem g_s138_142 NATURAL1) (= g_s138_142 e143) (mem g_s139_144 NATURAL1) (|>=i| g_s139_144 e138) (mem g_s140_145 NATURAL1) (|>=i| g_s140_145 e138) (mem g_s141_146 NATURAL1) (|>=i| g_s141_146 e140) (mem g_s142_147 NATURAL1) (mem g_s143_148 NATURAL1) (|>=i| g_s143_148 e140) (mem g_s144_149 NATURAL1) (|>=i| g_s144_149 e140) (|<=i| g_s140_145 g_s139_144) (|<=i| g_s143_148 g_s139_144) (|<=i| g_s144_149 g_s139_144) (|<=i| g_s141_146 g_s139_144) (|<=i| g_s142_147 g_s139_144) (subset g_s145_150 g_s24_25) (mem g_s146_151 g_s24_25) (mem g_s146_151 g_s145_150) (mem g_s147_152 g_s24_25) (not (mem g_s147_152 g_s145_150)) (mem g_s148_153 (|+->| NATURAL g_s24_25)) (mem g_s148_153 (perm g_s145_150)) (mem g_s149_155 (|-->| g_s145_150 g_s150_154)) (subset g_s151_156 g_s14_15) (mem g_s152_157 g_s14_15) (mem g_s152_157 g_s151_156) (not (mem g_s15_16 g_s151_156)) (= g_s151_156 (SET (mapplet g_s19_20 (mapplet g_s18_19 (mapplet g_s17_18 g_s16_17))))) (mem g_s153_158 (|+->| NATURAL g_s14_15)) (mem g_s153_158 (perm g_s151_156)) (mem g_s154_159 (|-->| g_s151_156 g_s150_154)) (subset g_s155_160 g_s20_21) (mem g_s156_161 g_s20_21) (mem g_s156_161 g_s155_160) (not (mem g_s21_22 g_s155_160)) (= g_s155_160 (SET (mapplet g_s23_24 g_s22_23))) (mem g_s157_162 (|+->| NATURAL g_s20_21)) (mem g_s157_162 (perm g_s155_160)) (mem g_s158_163 (|-->| g_s155_160 g_s150_154)) (subset g_s159_164 g_s25_26) (mem g_s160_165 g_s25_26) (mem g_s160_165 g_s159_164) (mem g_s161_166 g_s25_26) (not (mem g_s161_166 g_s159_164)) (mem g_s162_167 (|+->| NATURAL g_s25_26)) (mem g_s162_167 (perm g_s159_164)) (mem g_s163_168 (|+->>| g_s145_150 g_s151_156)) (mem g_s164_169 (|+->>| g_s145_150 g_s155_160)) (subset g_s165_170 g_s145_150) (= g_s166_171 NATURAL) (mem g_s167_172 (|-->| g_s166_171 g_s45_46)) (= (binary_inter (dom g_s163_168) (dom g_s164_169)) empty) (= (binary_inter (dom g_s164_169) g_s165_170) empty) (= (binary_union (binary_union (dom g_s163_168) (dom g_s164_169)) g_s165_170) g_s145_150) (= g_s168_173 INTEGER) (= g_s169_174 INTEGER) (= g_s170_175 NATURAL) (= g_s171_176 NATURAL) (mem g_s172_177 NAT1) (= g_s173_178 (interval e66 g_s172_177)) (= g_s174_179 NATURAL) (= g_s175_180 INTEGER)))
(define-fun |def_seext| () Bool true)
(define-fun |def_lprp| () Bool true)
(define-fun |def_inprp| () Bool true)
(define-fun |def_inext| () Bool true)
(define-fun |def_inv| () Bool (and (mem g_s176_181 (|>+>| g_s151_156 g_s61_62)) (mem g_s177_182 (|<->| g_s151_156 g_s84_86)) (subset g_s178_183 g_s151_156)))
(define-fun |def_ass| () Bool true)
(define-fun |def_cst| () Bool true)
(define-fun |def_sets| () Bool true)
; PO group 0 
(assert |def_B definitions|)
(assert |def_ctx|)
(assert |def_cst|)
(assert |def_lprp|)
(assert |def_inprp|)
(assert |def_inext|)
(assert |def_seext|)
(assert |def_inv|)
(assert |def_ass|)
(assert (mem g_s180_184 g_s14_15))
(assert (mem g_s180_184 g_s151_156))
(assert (mem g_s180_184 (dom g_s176_181)))
(define-fun lh_1 () Bool (mem g_s181$1_185 g_s5_6))
(define-fun lh_2 () Bool (mem g_s181$1_185 g_s61_62))
; PO 1 in group 0
(assert (not (=> (and lh_1 lh_2) (mem g_s176_181 (|+->| (dom g_s176_181) (ran g_s176_181))))))
(check-sat)
(exit)